# TD APFD/Lanl2DZ guess=mix

K

0 2
K  0.0  0.0  0.0


