# B3LYP-GD3/aug-cc-pVDZ Units=AU

H2

0 1
H  0.0  0.0  0.0
H  0.0  0.0  1.4


