# HF/3-21G GFPrint

N

0  2
N  0.0  0.0  0.0


