# HF/6-311++G(d) GFPrint

N

0  2
N  0.0  0.0  0.0


