# HF/6-31G(d,p) GFPrint

N

0  2
N  0.0  0.0  0.0


