# HF/6-311+G(3df,3pd) GFPrint

N

0  2
N  0.0  0.0  0.0


