# HF/6-31+G GFPrint

N

0  2
N  0.0  0.0  0.0


