# HF/6-311+G(3d2f,3p2d) GFPrint

N

0  2
N  0.0  0.0  0.0


