# HF/cc-pVQZ GFPrint

N

0  2
N  0.0  0.0  0.0


