%Chk=singlet.chk
# HF/aug-cc-pVTZ opt

O2 singlet

0  1
O  0.0  0.0  0.0
O  0.0  0.0  2.2

--Link1--
%Chk=singlet.chk
# CCSD/ChkBasis Geom=Check Guess=Read

CCSD check

0  1


