# CCSD/aug-cc-pVTZ

He

0 1
He  0.0  0.0  0.0


