# TD B3LYP/6-31G(d,p) guess=mix

Ca

0 1
Ca  0.0  0.0  0.0


