# TD B3LYP/6-31G(d,p) guess=mix

Li

0 2
Li  0.0  0.0  0.0


