# HF/6-311++G(3d2f,3p2d) GFPrint

H

0  2
H  0.0  0.0  0.0


