# HF/6-311G(3df,3pd)

H

0 2
H 0.0 0.0 0.0


