# HF/6-311G GFPrint

H

0  2
H  0.0  0.0  0.0


