# HF/6-31+G(d,p) GFPrint

H

0  2
H  0.0  0.0  0.0


