# HF/6-311G(d,p) GFPrint

H

0  2
H  0.0  0.0  0.0


