# HF/6-31G GFPrint

H

0  2
H  0.0  0.0  0.0


