# HF/6-311G(d) GFPrint

H

0  2
H  0.0  0.0  0.0


