# HF/6-311G(3df,3pd) GFPrint

H

0  2
H  0.0  0.0  0.0


