# HF/6-31++G GFPrint

H

0  2
H  0.0  0.0  0.0


