# HF/aug-cc-pVTZ GFPrint

H

0  2
H  0.0  0.0  0.0


