# HF/cc-pV5Z GFPrint

H

0  2
H  0.0  0.0  0.0


