# HF/STO-3G GFPrint

H

0  2
H  0.0  0.0  0.0


