# CCSD(T)/aug-cc-pVTZ 

N2 - N2

0 1
N  0.0  0.0  0.0
N  0.0  0.0  3.5
N  0.0  1.106  0.0
N  0.0  1.106  3.5


