# HF/STO-3G opt freq=ReadIsotopes

H2

0  1
H  0.0  0.0  0.0
H  0.0  0.0  1.0

298.15  1.0
1
1


