# HF/aug-cc-pVTZ 

N2 - N2

0 1
N  0.0  0.0  0.0
N  0.0  0.0  7.5
N  0.0  1.106  0.0
N  0.0  1.106  7.5


