# TD CAM-B3LYP/6-311G(d,p) guess=mix

Na

0 2
Na  0.0  0.0  0.0


