# TD CAM-B3LYP/6-31G(d,p) guess=mix

Cu

0 2
Cu  0.0  0.0  0.0


