# TD CAM-B3LYP/6-31G(d,p) guess=mix

Rb

0 2
Rb  0.0  0.0  0.0


