# HSEH1PBE/aug-cc-pVTZ 

Ne

0 1
Ne  0.0  0.0  0.0


