# CCSD/4-31G opt

H2O

0 1
O
H  1  B1
H  1  B1  2  A1

B1    0.96000000
A1  109.50000006


