# TD APFD/6-311G(3df,2pd) guess=mix

K

0 2
K  0.0  0.0  0.0


