# TD APFD/6-311G(3df,2pd) guess=mix

Na

0 2
Na  0.0  0.0  0.0


