# TD APFD/6-311G(3df,2pd) guess=mix

P

0 2
P  0.0  0.0  0.0


