# B3LYP/6-311G(3df,3pd) Units=AU

N2

0 1
N  0.0  0.0  0.0
N  0.0  0.0  2.068


