# B3LYP/6-311++G(3df,2pd) opt freq=ReadIsotopes

H2O

0 1
O
H  1  B1
H  1  B1  2  A1

B1    0.96
A1  109.50

298.15  1.0
16
1
1


