# HF/4-31G GFPrint

Ne

0  1
Ne  0.0  0.0  0.0


