# HF/6-31++G(3d2f,3p2d) GFPrint

Ne

0  1
Ne  0.0  0.0  0.0


