# HF/6-31G(d) GFPrint

Ne

0  1
Ne  0.0  0.0  0.0


