# HF/6-311G(d,p) GFPrint

Ne

0  1
Ne  0.0  0.0  0.0


