# HF/6-31++G GFPrint

Ne

0  1
Ne  0.0  0.0  0.0


