# HF/6-311G(3df,3pd) GFPrint

Ne

0  1
Ne  0.0  0.0  0.0


