# HF/aug-cc-pV5Z GFPrint

Ne

0  1
Ne  0.0  0.0  0.0


