# HF/aug-cc-pVTZ GFPrint

Ne

0  1
Ne  0.0  0.0  0.0


