# HF/cc-pVQZ GFPrint

Ne

0  1
Ne  0.0  0.0  0.0


