# TD HSEH1PBE/6-31G(d,p) guess=mix

B

0 2
B  0.0  0.0  0.0


