# TD HSEH1PBE/6-31G(d,p) guess=mix

K

0 2
K  0.0  0.0  0.0


