# TD HSEH1PBE/6-31G(d,p) guess=mix

P

0 2
P  0.0  0.0  0.0


