# CID/6-31G(3df,3pd) Units=AU

H2+

1  2
H  0.0  0.0  0.0
H  0.0  0.0  2.0


