# CID/aug-cc-pV6Z Units=AU

H2+

1  2
H  0.0  0.0  0.0
H  0.0  0.0  2.0


