# CASSCF(2,9)/6-31G(d,p) units=au

H2

0  1
H  0.0  0.0  0.0
H  0.0  0.0  1.4


