%chk=APFD.chk
# APFD/aug-cc-pVTZ opt freq

opt

0 1
O  0.0  0.0   0.0
O  0.0  1.4   1.4
O  0.0  1.4  -1.4


--Link1--
%Chk=APFD.chk
# TD APFD/ChkBasis Geom=Check Guess=Read

absorption

0 1
