%chk=CAM-B3LYP.chk
# CAM-B3LYP/aug-cc-pVTZ opt freq

opt

0 1
O  0.0  0.0   0.0
O  0.0  1.4   1.4
O  0.0  1.4  -1.4


--Link1--
%Chk=CAM-B3LYP.chk
# TD CAM-B3LYP/ChkBasis Geom=Check Guess=Read

absorption

0 1
