%chk=HF.chk
# HF/aug-cc-pVTZ opt freq

opt

0 1
O  0.0  0.0   0.0
O  0.0  1.4   1.4
O  0.0  1.4  -1.4


--Link1--
%Chk=HF.chk
# TD HF/ChkBasis Geom=Check Guess=Read

absorption

0 1
