%chk=HSEH1PBE.chk
# HSEH1PBE/aug-cc-pVTZ opt freq

opt

0 1
O  0.0  0.0   0.0
O  0.0  1.4   1.4
O  0.0  1.4  -1.4


--Link1--
%Chk=HSEH1PBE.chk
# TD HSEH1PBE/ChkBasis Geom=Check Guess=Read

absorption

0 1
