# HF/aug-cc-pV6Z Units=AU

H2

0 1
H  0.0  0.0  0.0
H  0.0  0.0  1.4


