# CCSD/aug-cc-pVTZ Units=AU Stable=Opt

O2 triplet

0  3
O  0.0  0.0  0.0
O  0.0  0.0  4.60


