# CCSD(T)/aug-cc-pVQZ

He

0 1
He  0.0  0.0  0.0


