# CCSD(T)/aug-cc-pVQZ Units=AU

He2

0 1
He  0.0  0.0  0.0
He  0.0  0.0  4.9


