# B3LYP/aug-cc-pVDZ Units=AU opt EmpiricalDispersion=GD3BJ

(H2O)2

0  1
O  0.0  0.0  0.0
O  0.0  0.0  3.0
H  0.0  0.0  1.5
H  1.5  0.0 -1.5
H  0.0  1.5  4.5
H  0.0 -1.5  4.5


