# CCSD/aug-cc-pVDZ Units=AU opt freq

(H2O)2

0  1
O  0.0  0.0  0.0
O  0.0  0.0  4.0
H  0.0  0.0  2.0
H  1.7  0.0 -1.7
H  0.0  1.7  5.7
H  0.0 -1.7  5.7


