# B3LYP/6-311++G(3df,2pd) opt freq=anharmonic

D2O

0 1
O(Iso=16)
H(Iso=2)  1  B1
H(Iso=2)  1  B1  2  A1

B1    0.96
A1  109.50


