# B3LYP/6-311G(d,p) opt freq=anharmonic

D2O

0 1
O
H(Iso=2)  1  B1
H(Iso=2)  1  B1  2  A1

B1    0.96000000
A1  109.50000006


