# WB97XD/4-31G Units=AU

H2

0 1
H  0.0  0.0  0.0
H  0.0  0.0  1.4


