# CCSD/STO-3G Units=AU opt

H2+

1 2
H  0.0  0.0  0.0
H  0.0  0.0  2.0


