# HF/STO-3G opt freq

Opt+Freq example

0  1
H  0.0  0.0  0.0
H  0.0  0.0  0.7


