%chk=gv.chk
# opt freq hf/sto-3g

GaussView example

0 1
 H                 -3.66666683    0.03333333    0.00000000
 H                 -4.26666683    0.03333333    0.00000000

