# HF/STO-3G opt

Opt example

0  1
H  0.0  0.0  0.0
H  0.0  0.0  0.7


