# TD CAM-B3LYP/SDD guess=mix

Na

0 2
Na  0.0  0.0  0.0


