# CIS/Lanl2DZ guess=mix

Li

0 2
Li  0.0  0.0  0.0


