# B3PW91/6-31G Units=AU

N2

0 1
N  0.0  0.0  0.0
N  0.0  0.0  2.068


