# B3PW91/STO-3G Units=AU

N2

0 1
N  0.0  0.0  0.0
N  0.0  0.0  2.068


