# CCSD(T)/aug-cc-pVTZ units=au guess=mix scf=xqc geom=nocrowd

H2

0  1
H  0.0  0.0  0.0
H  0.0  0.0  10.0


 