# CIS/aug-cc-pVTZ Units=AU

H2 CIS

0  1
H  0.0  0.0  0.0
H  0.0  0.0  7.20


