%chk=anthracene.chk
# B3LYP/6-31G(d,p) opt freq=Raman

anthracene

0 1
C  -7.02898605  -1.64027335  -0.01291600
C  -5.66436305  -1.64027335  -0.01291600
C  -4.93147205  -0.40905235  -0.01291600
C  -5.65546905   0.82269465  -0.01843400
C  -7.08770905   0.78120365  -0.01973400
C  -7.75149205  -0.41108935  -0.01636300
C  -3.53257105  -0.38616335  -0.00802000
C  -4.95509205   2.03386165  -0.02015500
C  -3.55615105   2.05674565  -0.01453000
C  -2.83218205   0.82504265  -0.00711000
C  -1.40000005   0.86666665   0.00000000
H  -0.85413005  -0.08886035   0.00660100
C  -0.73626305   2.05902165   0.00104200
C  -1.45874605   3.28813665  -0.00713000
C  -2.82338905   3.28799165  -0.01449700
H  -2.97486805  -1.33540035  -0.00370100
H  -7.59485805  -2.58355135  -0.01051200
H  -5.09503705  -2.58200735  -0.00981000
H  -7.63352205   1.73674965  -0.02433800
H  -8.85089005  -0.44725435  -0.01779400
H  -5.51323105   2.98284265  -0.02442300
H   0.36314295   2.09492565   0.00720200
H  -0.89266605   4.23131365  -0.00603500
H  -3.39293205   4.22960865  -0.02076900


