%chk=phenanthrene.chk
# B3LYP/6-31G(d,p) opt freq=Raman

phenanthrene

0 1
C  -5.51164604  -1.50889805  -0.17791418
C  -4.13175504  -1.50889805  -0.17791418
C  -3.41241904  -0.29225405  -0.17791418
C  -4.11000804   0.93964195  -0.17584418
C  -5.52399304   0.90977795  -0.17543518
C  -6.21045504  -0.28879105  -0.17692218
C  -1.97736704  -0.30073705  -0.17959418
C  -3.36057604   2.17632895  -0.17437318
C  -1.94572904   2.12805395  -0.17619018
C  -1.27403904   0.85987795  -0.17928218
C  -1.20000004   3.32876495  -0.17445318
H  -0.10096504   3.27210895  -0.17587118
C  -1.83861804   4.55194795  -0.17077218
C  -3.24362604   4.60675395  -0.16885018
C  -3.98849104   3.44362695  -0.17076718
H  -1.46778104  -1.27650605  -0.18141918
H  -6.07086704  -2.45581305  -0.17876818
H  -3.57273604  -2.45683905  -0.17862018
H  -6.09337504   1.85075195  -0.17413118
H  -7.31055004  -0.29571405  -0.17719918
H  -0.17322204   0.85939795  -0.18091118
H  -1.25801004   5.48591095  -0.16930518
H  -3.74635104   5.58527795  -0.16586918
H  -5.08615004   3.51273195  -0.16913018


