# RHF/STO-3G units=au geom=nocrowd

H2

0  1
H  0.0  0.0  0.0
H  0.0  0.0  8.0


