%chk=C2H2.chk
# HF/6-31G(d,p) opt freq

C2H2

0  1
C  0.0  0.0  1.0
C  0.0  0.0  2.0
H  0.0  0.0 -1.0
H  0.0  0.0  3.0


