%chk=C2H6.chk
# HF/6-31G(d,p) opt freq

C2H6

0  1
C  0.0  0.0  1.0
C  0.0  0.0  2.0
H  0.0  1.0  0.0
H  0.0 -1.0  0.0
H  1.0  0.0  0.0
H  0.0  1.0  3.0
H  0.0 -1.0  3.0
H  1.0  0.0  3.0


