# HF/6-31G(d) opt freq=ReadIsotopes

CH4

0  1
C
H  1  B1
H  1  B1  2  A1
H  1  B1  3  A1  2  D1  0
H  1  B1  3  A1  2  D2  0

B1     1.07000000
A1   109.47120255
D1  -120.0
D2   120.0

298.15  1.0
12
1
1
1
1


