# HF/4-31G GFPrint

B

0  2
B  0.0  0.0  0.0


