# HF/6-31++G(3df,3pd) GFPrint

B

0  2
B  0.0  0.0  0.0


