# HF/6-31+G(3d2f,3p2d) GFPrint

B

0  2
B  0.0  0.0  0.0


