# HF/6-311++G GFPrint

B

0  2
B  0.0  0.0  0.0


