# HF/6-31G(d,p) GFPrint

B

0  2
B  0.0  0.0  0.0


