# HF/6-311G(3df,3pd) GFPrint

B

0  2
B  0.0  0.0  0.0


