# HF/6-31+G(d) GFPrint

B

0  2
B  0.0  0.0  0.0


