# HF/6-311++G(d) GFPrint

B

0  2
B  0.0  0.0  0.0


