# HF/cc-pVQZ GFPrint

B

0  2
B  0.0  0.0  0.0


