# HF/STO-3G GFPrint

B

0  2
B  0.0  0.0  0.0


