# APFD/6-311++G(3df,2pd) Units=AU

N2

0 1
N  0.0  0.0  0.0
N  0.0  0.0  2.068


