# CIS/3-21G

Lyman series

0  2
H  0.0  0.0  0.0



