# CIS/6-311+G(3d2f,3p2d)

Lyman series

0  2
H  0.0  0.0  0.0



