# CIS/6-311+G(d,p)

Lyman series

0  2
H  0.0  0.0  0.0



