# CIS/6-31+G

Lyman series

0  2
H  0.0  0.0  0.0



