# CIS/6-31G

Lyman series

0  2
H  0.0  0.0  0.0



