# CIS/aug-cc-pVTZ

Lyman series

0  2
H  0.0  0.0  0.0



