# CIS/aug-cc-pV6Z

Lyman series

0  2
H  0.0  0.0  0.0



