# CCSD/6-311++G(3df,2pd) opt freq=ReadIsotopes

O2 (triplet)

0  3
O  0.0  0.0  0.0
O  0.0  0.0  2.2

298.15  1.0
16
16


