# TD HSEH1PBE/6-311G(d,p) guess=mix

Cu

0 2
Cu  0.0  0.0  0.0


