# TD HSEH1PBE/Lanl2DZ guess=mix

Na

0 2
Na  0.0  0.0  0.0


