# TD HSEH1PBE/Lanl2DZ guess=mix

P

0 2
P  0.0  0.0  0.0


