# HF/6-31++G(d,p) GFPrint

Ar

0  1
Ar  0.0  0.0  0.0


