# HF/6-31G(3df,3pd) GFPrint

Ar

0  1
Ar  0.0  0.0  0.0


