# HF/6-31G GFPrint

Ar

0  1
Ar  0.0  0.0  0.0


