# HF/6-311++G(3d2f,3p2d) GFPrint

Ar

0  1
Ar  0.0  0.0  0.0


