# HF/6-31++G GFPrint

Ar

0  1
Ar  0.0  0.0  0.0


