# HF/6-311G(d,p) GFPrint

Ar

0  1
Ar  0.0  0.0  0.0


