# HF/6-311G(d) GFPrint

Ar

0  1
Ar  0.0  0.0  0.0


