# HF/6-31G(d) GFPrint

Ar

0  1
Ar  0.0  0.0  0.0


