# HF/6-311G(3df,3pd) GFPrint

Ar

0  1
Ar  0.0  0.0  0.0


