# HF/cc-pV5Z GFPrint

Ar

0  1
Ar  0.0  0.0  0.0


