# HF/EPR-II GFPrint

Ar

0  1
Ar  0.0  0.0  0.0


