# TD B3LYP/SDD guess=mix

Ca

0 1
Ca  0.0  0.0  0.0


