# TD B3LYP/SDD guess=mix

Rb

0 2
Rb  0.0  0.0  0.0


