# B3LYP/6-31G(d) opt

NH3

0 1
N  
H  1  B1
H  1  B1  2  A1
H  1  B1  3  A1  2  D1  0

B1   1.0
A1   109.47120255
D1  -120.0


