# TD B3LYP/6-311G(d,p) guess=mix

Sr

0 1
Sr  0.0  0.0  0.0


