# UHF/6-311G(3df,3pd) TD

Li

0 2
Li  0.0  0.0  0.0


