# UCIS/6-311G(3df,3pd) 

Li

0 2
Li  0.0  0.0  0.0


