# HF/6-311++G(d,p) Units=AU

H2+

1  2
H  0.0  0.0  0.0
H  0.0  0.0  2.0


