# HF/6-31G Units=AU

H

0  2
H  0.0  0.0  0.0


