# HF/6-311++G(d,p) Units=AU

H

0  2
H  0.0  0.0  0.0


