# HF/aug-cc-pV5Z Units=AU

H

0  2
H  0.0  0.0  0.0


