# TD HSEH1PBE/SDD guess=mix

Na

0 2
Na  0.0  0.0  0.0


