# TD HSEH1PBE/SDD guess=mix

P

0 2
P  0.0  0.0  0.0


