# HF/3-21G GFPrint

C

0  1
C  0.0  0.0  0.0


