# HF/4-31G GFPrint

C

0  1
C  0.0  0.0  0.0


