# HF/6-311++G GFPrint

C

0  1
C  0.0  0.0  0.0


