# HF/6-311++G(3d2f,3p2d) GFPrint

C

0  1
C  0.0  0.0  0.0


