# HF/6-31G GFPrint

C

0  1
C  0.0  0.0  0.0


