# HF/6-311G(d,p) GFPrint

C

0  1
C  0.0  0.0  0.0


