# HF/6-311++G(3df,3pd) GFPrint

C

0  1
C  0.0  0.0  0.0


