# HF/aug-cc-pV5Z GFPrint

C

0  1
C  0.0  0.0  0.0


