# HF/aug-cc-pVQZ GFPrint

C

0  1
C  0.0  0.0  0.0


