# HF/STO-3G GFPrint

C

0  1
C  0.0  0.0  0.0


