# TD HSEH1PBE/6-311G(3df,2pd) guess=mix

Ca

0 1
Ca  0.0  0.0  0.0


