# CIS/6-311G(3df,2pd) guess=mix

Rb

0 2
Rb  0.0  0.0  0.0


