# CISD/aug-cc-pV5Z Units=AU

H2

0 1
H  0.0  0.0  0.0
H  0.0  0.0  1.4


