# B3LYP/aug-cc-pVTZ EmpiricalDispersion=GD3

N2 - N2

0 1
N  0.0  0.0  0.0
N  0.0  0.0  6.5
N  0.0  1.106  0.0
N  0.0  1.106  6.5


