# HF/6-31G(d) units=au

title

0 1
H  0.0  0.0  0.0
H  0.0  0.0  1.4


