# B3LYP/6-31G(d,p) opt

FH

0 1
F  0.0  0.0  0.0
H  0.0  0.0  2.0


