# CCSD(T)/aug-cc-pVTZ Units=AU

He2

0 1
He  0.0  0.0  0.0
He  0.0  0.0  6.3


