# CIS/SDD guess=mix

Sr

0 1
Sr  0.0  0.0  0.0


