# TD B3LYP/Lanl2DZ guess=mix

Cu

0 2
Cu  0.0  0.0  0.0


