# TD B3LYP/6-311G(3df,2pd) guess=mix

Cu

0 2
Cu  0.0  0.0  0.0


