%chk=4-31G
# HF/4-31G units=au

fchk 4-31G

0 1
H 0.0 0.0 0.0
H 0.0 0.0 1.4


