%chk=6-31G
# HF/6-31G units=au

fchk 6-31G

0 1
H 0.0 0.0 0.0
H 0.0 0.0 1.4


