# HF/STO-3G

hydrogen atom

0 2
H 0.0 0.0 0.0


