# HF/6-31G(3df,3pd) GFPrint

Be

0  1
Be  0.0  0.0  0.0


