# HF/6-311++G(d,p) GFPrint

Be

0  1
Be  0.0  0.0  0.0


