# HF/6-31G GFPrint

Be

0  1
Be  0.0  0.0  0.0


