# HF/6-311G(d) GFPrint

Be

0  1
Be  0.0  0.0  0.0


