# HF/6-311++G(d) GFPrint

Be

0  1
Be  0.0  0.0  0.0


