# HF/6-311++G GFPrint

Be

0  1
Be  0.0  0.0  0.0


