# HF/6-31++G(d) GFPrint

Be

0  1
Be  0.0  0.0  0.0


