# HF/6-311G(3d2f,3p2d) GFPrint

Be

0  1
Be  0.0  0.0  0.0


