# HF/6-311G GFPrint

Be

0  1
Be  0.0  0.0  0.0


