# HF/aug-cc-pVTZ GFPrint

Be

0  1
Be  0.0  0.0  0.0


