# HF/cc-pV5Z GFPrint

Be

0  1
Be  0.0  0.0  0.0


