# B3LYP/4-31G Units=AU opt

N2

0 1
N  0.0  0.0  0.0
N  0.0  0.0  2.068


