# HSEH1PBE/aug-cc-pVTZ 

He - He

0  1
He  0.0  0.0  0.0
He  0.0  0.0  2.6


