# B3LYP/aug-cc-pVTZ EmpiricalDispersion=GD3

Ne

0 1
Ne  0.0  0.0  0.0


