# B3LYP/aug-cc-pVTZ EmpiricalDispersion=GD3

Ne - Ne

0  1
Ne  0.0  0.0  0.0
Ne  0.0  0.0  2.7


