# HF/3-21G GFPrint

Li

0  2
Li  0.0  0.0  0.0


