# HF/4-31G GFPrint

Li

0  2
Li  0.0  0.0  0.0


