# HF/6-311++G(3d2f,3p2d) GFPrint

Li

0  2
Li  0.0  0.0  0.0


