# HF/6-31++G(d,p) GFPrint

Li

0  2
Li  0.0  0.0  0.0


