# HF/6-311+G(d) GFPrint

Li

0  2
Li  0.0  0.0  0.0


