# HF/6-311G(d,p) GFPrint

Li

0  2
Li  0.0  0.0  0.0


