# HF/6-31++G(3df,3pd) GFPrint

Li

0  2
Li  0.0  0.0  0.0


