# HF/6-31+G GFPrint

Li

0  2
Li  0.0  0.0  0.0


