# HF/aug-cc-pV5Z GFPrint

Li

0  2
Li  0.0  0.0  0.0


