# HF/cc-pVTZ GFPrint

Li

0  2
Li  0.0  0.0  0.0


