# CCSD/aug-cc-pVTZ Units=AU Stable=Opt

O2 singlet

0  1
O  0.0  0.0  0.0
O  0.0  0.0  3.30


