# HF/STO-3G Units=AU opt

CO

0 1
C  0.0  0.0  0.0
O  0.0  0.0  2.068


