%chk=diamond.chk
# SVWN/STO-3G opt

diamond

0 1
C   5.80046197  3.34889828  2.36802869
C   3.86697465  2.23259886  1.57868579
Tv  3.86697465  0.00000000  0.00000000
Tv  1.93348733  3.34889828  0.00000000
Tv  1.93348733  1.11629943  3.15737158


