# TD APFD/6-311G(d,p) guess=mix

K

0 2
K  0.0  0.0  0.0


