# TD APFD/6-311G(d,p) guess=mix

Li

0 2
Li  0.0  0.0  0.0


