# TD APFD/6-311G(d,p) guess=mix

P

0 2
P  0.0  0.0  0.0


