# TD APFD/6-311G(d,p) guess=mix

Rb

0 2
Rb  0.0  0.0  0.0


