# HF/STO-3G Units=AU

hello

0 1
H  0.0  0.0  0.0
H  0.0  0.0  1.4


