# B3LYP/6-311++G(3df,2pd) opt freq=ReadIsotopes

H2

0  1
H  0.0  0.0  0.0
H  0.0  0.0  1.0

298.15  1.0
1
1


