# HF/6-31++G(d,p) Opt Freq

H2O

0  1
O  0.0  0.0  0.0
H  0.0  1.4  1.4
H  0.0  1.4  -1.4



