# HF/aug-cc-pV5Z Opt Freq

H2O

0  1
O  0.0  0.0  0.0
H  0.0  1.4  1.4
H  0.0  1.4  -1.4



