# CCSD/STO-3G opt

FH

0 1
F  0.0  0.0  0.0
H  0.0  0.0  2.0


