# RHF/aug-cc-pVTZ units=au guess=mix geom=nocrowd

Li2

0  1
Li  0.0  0.0  0.0
Li  0.0  0.0  2.6


 