# HF/6-31++G GFPrint

Kr

0  1
Kr  0.0  0.0  0.0


