# HF/6-311++G(d,p) GFPrint

Kr

0  1
Kr  0.0  0.0  0.0


