# HF/6-311++G(3d2f,3p2d) GFPrint

Kr

0  1
Kr  0.0  0.0  0.0


