# HF/6-311G(d) GFPrint

Kr

0  1
Kr  0.0  0.0  0.0


