# HF/6-311+G(3df,3pd) GFPrint

Kr

0  1
Kr  0.0  0.0  0.0


