# HF/6-31G GFPrint

Kr

0  1
Kr  0.0  0.0  0.0


