# HF/6-31+G(d,p) GFPrint

Kr

0  1
Kr  0.0  0.0  0.0


