# HF/EPR-III GFPrint

Kr

0  1
Kr  0.0  0.0  0.0


