# TD wB97XD/6-31G(d,p) guess=mix

Cu

0 2
Cu  0.0  0.0  0.0


