# TD wB97XD/6-31G(d,p) guess=mix

Na

0 2
Na  0.0  0.0  0.0


