# HF/6-31+G GFPrint

F

0  2
F  0.0  0.0  0.0


