# HF/6-311+G(3d2f,3p2d) GFPrint

F

0  2
F  0.0  0.0  0.0


