# HF/6-31+G(3df,3pd) GFPrint

F

0  2
F  0.0  0.0  0.0


