# HF/6-31G(d) GFPrint

F

0  2
F  0.0  0.0  0.0


