# HF/6-311+G GFPrint

F

0  2
F  0.0  0.0  0.0


