# HF/6-31++G(d,p) GFPrint

F

0  2
F  0.0  0.0  0.0


