# HF/6-31G GFPrint

F

0  2
F  0.0  0.0  0.0


