# HF/cc-pVTZ GFPrint

F

0  2
F  0.0  0.0  0.0


