# HF/cc-pVQZ GFPrint

F

0  2
F  0.0  0.0  0.0


