# HF/EPR-II GFPrint

F

0  2
F  0.0  0.0  0.0


