# HF/STO-3G GFPrint

F

0  2
F  0.0  0.0  0.0


