# CCSD/STO-3G Units=AU opt

H2

0 1
H 0.0 0.0 0.0
H 0.0 0.0 1.4


