# HSEH1PBE/6-31G(d,p) Units=AU

H

0 2
H 0.0 0.0 0.0


