# HF/6-311++G(d,p) Units=AU GFPrint

H2

0  1
H  0.0  0.0  0.0
H  0.0  0.0  1.4


