# HF/6-311G(3d2f,3p2d) Units=AU GFPrint

H2

0  1
H  0.0  0.0  0.0
H  0.0  0.0  1.4


