# HF/aug-cc-pV5Z Units=AU GFPrint

H2

0  1
H  0.0  0.0  0.0
H  0.0  0.0  1.4


