# TD wB97XD/SDD guess=mix

B

0 2
B  0.0  0.0  0.0


