# TD wB97XD/SDD guess=mix

Cu

0 2
Cu  0.0  0.0  0.0


