# TD wB97XD/SDD guess=mix

K

0 2
K  0.0  0.0  0.0


