# TD wB97XD/SDD guess=mix

Li

0 2
Li  0.0  0.0  0.0


