# TD wB97XD/SDD guess=mix

Na

0 2
Na  0.0  0.0  0.0


