# TD wB97XD/6-311G(3df,2pd) guess=mix

Li

0 2
Li  0.0  0.0  0.0


