# B3LYP/6-31++G(d,p) Units=AU

H2

0 1
H  0.0  0.0  0.0
H  0.0  0.0  1.4


