# CISD/6-31G(3df,3pd) Units=AU

H

0  2
H  0.0  0.0  0.0


