# CISD/6-31++G(d,p) Units=AU

H

0  2
H  0.0  0.0  0.0


