# CISD/6-311++G(3df,2pd) Units=AU

H

0  2
H  0.0  0.0  0.0


