# CISD/6-31G(d) Units=AU

H

0  2
H  0.0  0.0  0.0


