# CISD/aug-cc-pVTZ Units=AU

H

0  2
H  0.0  0.0  0.0


