# CISD/aug-cc-pVDZ Units=AU

H

0  2
H  0.0  0.0  0.0


