# B3LYP/6-31G(d,p) Units=AU opt

CO

0 1
C  0.0  0.0  0.0
O  0.0  0.0  2.068


