# TD CAM-B3LYP/6-311G(3df,2pd) guess=mix

B

0 2
B  0.0  0.0  0.0


