# TD CAM-B3LYP/6-311G(3df,2pd) guess=mix

Sr

0 1
Sr  0.0  0.0  0.0


