# HF/6-31++G(d,p) GFPrint

He

0  1
He  0.0  0.0  0.0


