# HF/6-311G(3df,3pd) GFPrint

He

0  1
He  0.0  0.0  0.0


