# HF/6-31++G(3df,3pd) GFPrint

He

0  1
He  0.0  0.0  0.0


