# HF/6-311G GFPrint

He

0  1
He  0.0  0.0  0.0


