# HF/6-311G(d) GFPrint

He

0  1
He  0.0  0.0  0.0


