# HF/6-311G(3d2f,3p2d) GFPrint

He

0  1
He  0.0  0.0  0.0


