# HF/aug-cc-pVDZ GFPrint

He

0  1
He  0.0  0.0  0.0


