# HF/cc-pV5Z GFPrint

He

0  1
He  0.0  0.0  0.0


