# B3LYP/6-31G(d,p) opt freq=ReadIsotopes

CO

0  1
C  0.0  0.0  0.0
O  0.0  0.0  2.0

298.15  1.0
12
16


