# PBE1PBE/aug-cc-pVTZ 

Ne - Ne

0  1
Ne  0.0  0.0  0.0
Ne  0.0  0.0  4.6


