# B3LYP/aug-cc-pVTZ EmpiricalDispersion=GD3

He - He

0  1
He  0.0  0.0  0.0
He  0.0  0.0  3.7


