# TD wB97XD/6-311G(d,p) guess=mix

Ca

0 1
Ca  0.0  0.0  0.0


