# TD wB97XD/6-311G(d,p) guess=mix

Sr

0 1
Sr  0.0  0.0  0.0


