# B3LYP-GD3/6-31++G(d,p) Units=AU

N2

0 1
N  0.0  0.0  0.0
N  0.0  0.0  2.068


