# HF/6-31G Opt Freq

H2

1  2
H  0.0  0.0  0.0
H  0.0  0.0  1.0



