# HF/6-31++G(d,p) Opt Freq

H2

1  2
H  0.0  0.0  0.0
H  0.0  0.0  1.0



