# MPW1PW91/6-31G(3df,3pd) Units=AU

H2

0 1
H  0.0  0.0  0.0
H  0.0  0.0  1.4


