# TD CAM-B3LYP/Lanl2DZ guess=mix

B

0 2
B  0.0  0.0  0.0


