# TD CAM-B3LYP/Lanl2DZ guess=mix

Ca

0 1
Ca  0.0  0.0  0.0


