# TD CAM-B3LYP/Lanl2DZ guess=mix

Rb

0 2
Rb  0.0  0.0  0.0


