# TD CAM-B3LYP/Lanl2DZ guess=mix

Sr

0 1
Sr  0.0  0.0  0.0


