# APFD/6-311++G(3df,2pd) Units=AU

H2

0 1
H  0.0  0.0  0.0
H  0.0  0.0  1.4


