%chk=menthol
# opt freq pm6

Title Card Required

0 2
 C                 -1.03010441    1.94497730   -0.14912999
 C                  0.36505559    1.94497730   -0.14912999
 C                  1.06259359    3.15272830   -0.14912999
 C                  0.36493959    4.36123730   -0.15032899
 C                 -1.02988541    4.36115930   -0.15080799
 C                 -1.72748641    3.15295330   -0.14981199
 H                 -1.57986341    0.99266030   -0.14867999
 H                  0.91513959    5.31338030   -0.15038799
 H                 -1.58000741    5.31344030   -0.15176099
 C                 -3.26748637    3.15320959   -0.15006408
 H                 -3.62409219    4.02175288    0.36312677
 H                 -3.62398588    3.16351358   -1.15887622
 H                 -3.62438057    2.27454035    0.34538208
 O                  1.07963991    0.70632225   -0.14741995
 H                  1.47961190    0.56592056   -1.00876179
 C                  2.60259333    3.15284033   -0.14824213
 C                  3.30019021    3.12194169    1.06679936
 H                  3.91214542    3.99581009    1.14904801
 H                  2.60280340    3.09724775    1.87793551
 H                  3.91825230    2.24917541    1.10112531
 C                  3.30158626    3.18384057   -1.36247844
 H                  3.86446925    4.09153576   -1.42691583
 H                  3.96685960    2.34729486   -1.41250493
 H                  2.60712628    3.13636046   -2.17511057


