# CISD/6-311++G(3df,2pd) opt freq temperature=0.0

H2

1  2
H  0.0  0.0  0.0
H  0.0  0.0  1.0


