%chk=abs.chk
# HF/aug-cc-pVTZ opt

opt

0 1
H 0.0 0.0 0.0
H 0.0 0.0 2.0

--Link1--
%Chk=abs.chk
# CIS/ChkBasis Geom=Check Guess=Read

absorption

0 1


