# CIS/aug-cc-pVTZ opt

opt + emission

0 1
H 0.0 0.0 0.0
H 0.0 0.0 2.0


