%chk=C:\Users\user\Desktop\gaussian\examples\UV-vis\Li.chk
# cis/6-311g(3d2f,3p2d) geom=connectivity

Title Card Required

0 2
 Li                -5.41666687    2.74999996    0.00000000

 1

