# HF/aug-cc-pVTZ

H

-1  1
H  0.0  0.0  0.0


