# PBE1PBE/aug-cc-pVTZ 

N2 - N2

0 1
N  0.0  0.0  0.0
N  0.0  0.0  5.4
N  0.0  1.106  0.0
N  0.0  1.106  5.4


