# CID/aug-cc-pV6Z Units=AU

H

0  2
H  0.0  0.0  0.0


