# CID/aug-cc-pVQZ Units=AU

H

0  2
H  0.0  0.0  0.0


