# B3LYP/aug-cc-pVTZ Units=AU opt EmpiricalDispersion=GD3BJ

He2

0 1
He  0.0  0.0  0.0
He  0.0  0.0  2.0


