# HF/4-31G GFPrint

O

0  1
O  0.0  0.0  0.0


