# HF/6-31+G GFPrint

O

0  1
O  0.0  0.0  0.0


