# HF/6-311+G GFPrint

O

0  1
O  0.0  0.0  0.0


