# HF/6-31+G(3d2f,3p2d) GFPrint

O

0  1
O  0.0  0.0  0.0


