# HF/6-311G(3df,3pd) GFPrint

O

0  1
O  0.0  0.0  0.0


