# HF/6-31++G(d,p) GFPrint

O

0  1
O  0.0  0.0  0.0


