# HF/cc-pV5Z GFPrint

O

0  1
O  0.0  0.0  0.0


