# HF/EPR-III GFPrint

O

0  1
O  0.0  0.0  0.0


