# TD wB97XD/Lanl2DZ guess=mix

Na

0 2
Na  0.0  0.0  0.0


